ID_groupA
176
3443
3443
3443
3443
3443
3443
3443
1169
3443
1169
3443
3443
3443
3443
3443
3443
3443
3443
3443
176
3443
3443
3443
176
3443
176
4005
3443
3443
3443
3443
3443
1169
4005
3443
3443
3443
3443
3443
3443
3443
4005
3443
3443
4005
3443
3443
3443
3443
3443
3443
3443
3443
3443
3443
3443
3443
3443
3443
3443
3443
3443
3443
3443
3443
3443
3443
3443
3443
3443
3443
3443
3443
3443
3443
3443
3443
3443
4005
3443
3443
3443
3443
3443
3443
3443
3443
3443
3443
3443
1169
3443
3443
1169
3443
3443
3443
3443
3443
3443
3443
3443
176
3443
